c case_ACTIVSg500 in MATPOWER https://matpower.org
p edge 500 584
e 1 2
e 1 3
e 1 4
e 1 5
e 1 6
e 1 7
e 1 8
e 1 9
e 1 10
e 1 11
e 1 51
e 1 87
e 1 138
e 1 146
e 11 12
e 11 13
e 11 14
e 11 15
e 15 16
e 15 19
e 15 27
e 15 30
e 15 41
e 16 17
e 17 18
e 17 19
e 17 21
e 17 27
e 19 20
e 21 22
e 21 23
e 23 24
e 23 25
e 25 26
e 25 27
e 27 28
e 27 29
e 29 76
e 29 79
e 30 31
e 30 32
e 32 33
e 32 34
e 34 35
e 35 36
e 35 37
e 37 38
e 37 39
e 39 40
e 39 60
e 39 65
e 41 42
e 41 43
e 41 49
e 43 44
e 44 45
e 44 46
e 46 47
e 46 48
e 48 50
e 48 51
e 49 84
e 49 91
e 49 94
e 49 96
e 50 51
e 51 52
e 51 53
e 51 54
e 54 55
e 54 56
e 56 57
e 56 58
e 58 59
e 58 60
e 58 62
e 60 61
e 62 63
e 62 64
e 64 138
e 64 144
e 65 66
e 65 67
e 65 68
e 65 69
e 65 70
e 70 71
e 70 72
e 72 73
e 72 74
e 74 75
e 74 397
e 74 398
e 76 77
e 76 78
e 78 84
e 78 87
e 78 91
e 79 80
e 79 81
e 79 82
e 79 83
e 79 86
e 79 87
e 84 85
e 86 132
e 86 138
e 87 88
e 87 89
e 87 90
e 91 92
e 91 93
e 93 94
e 94 95
e 94 102
e 94 104
e 94 106
e 94 114
e 94 116
e 96 97
e 96 98
e 98 99
e 98 100
e 100 101
e 101 102
e 101 103
e 101 123
e 101 125
e 101 126
e 104 105
e 104 106
e 106 107
e 106 108
e 106 109
e 106 110
e 106 111
e 111 112
e 111 113
e 111 146
e 111 147
e 114 115
e 114 116
e 116 117
e 116 118
e 116 119
e 116 120
e 116 121
e 116 122
e 116 132
e 116 134
e 123 124
e 123 125
e 125 127
e 125 179
e 125 190
e 126 217
e 126 220
e 127 128
e 128 129
e 128 130
e 130 131
e 130 208
e 130 211
e 132 133
e 132 135
e 134 137
e 134 140
e 135 136
e 135 151
e 135 157
e 138 139
e 138 141
e 138 142
e 138 148
e 140 143
e 140 151
e 140 153
e 144 145
e 144 153
e 144 165
e 146 189
e 146 227
e 146 228
e 147 149
e 147 150
e 148 178
e 148 201
e 148 203
e 150 179
e 150 181
e 151 152
e 153 154
e 153 155
e 153 156
e 157 158
e 157 159
e 159 160
e 159 161
e 161 162
e 161 163
e 163 164
e 163 167
e 165 166
e 165 169
e 167 168
e 167 204
e 167 205
e 169 170
e 169 171
e 169 172
e 169 173
e 173 174
e 174 175
e 174 176
e 176 177
e 176 178
e 176 201
e 176 271
e 176 273
e 179 180
e 181 182
e 181 183
e 183 184
e 183 185
e 185 186
e 185 187
e 187 188
e 187 189
e 189 190
e 190 191
e 190 192
e 190 193
e 190 194
e 190 195
e 190 196
e 190 197
e 190 198
e 190 199
e 190 200
e 190 210
e 190 223
e 201 202
e 203 398
e 203 402
e 204 205
e 204 206
e 205 207
e 205 235
e 205 241
e 208 209
e 208 210
e 210 213
e 211 212
e 211 213
e 211 214
e 211 215
e 213 223
e 213 227
e 215 216
e 215 217
e 217 218
e 217 219
e 220 221
e 220 222
e 222 227
e 222 231
e 223 224
e 223 225
e 223 226
e 223 227
e 223 229
e 227 228
e 227 252
e 228 230
e 229 237
e 230 231
e 230 234
e 231 232
e 231 233
e 234 235
e 234 236
e 237 238
e 237 239
e 239 240
e 239 242
e 241 243
e 241 245
e 242 244
e 242 246
e 245 252
e 245 260
e 245 261
e 246 247
e 246 248
e 248 249
e 248 250
e 250 251
e 250 257
e 252 253
e 252 254
e 252 255
e 252 256
e 252 320
e 252 337
e 257 258
e 257 259
e 257 301
e 257 308
e 257 312
e 257 314
e 260 293
e 261 262
e 261 263
e 263 264
e 263 265
e 265 266
e 265 267
e 265 268
e 268 269
e 268 270
e 268 271
e 271 272
e 273 274
e 273 275
e 275 276
e 275 277
e 277 278
e 277 279
e 279 280
e 279 281
e 279 282
e 279 283
e 279 284
e 284 285
e 284 286
e 286 287
e 286 288
e 286 289
e 289 290
e 289 291
e 291 292
e 291 297
e 293 294
e 293 295
e 293 296
e 293 299
e 293 305
e 297 298
e 297 344
e 297 346
e 297 372
e 297 374
e 297 378
e 297 380
e 297 381
e 299 300
e 299 301
e 301 302
e 301 303
e 303 304
e 303 308
e 305 306
e 305 307
e 307 325
e 308 309
e 308 310
e 308 311
e 311 312
e 312 313
e 314 315
e 315 316
e 315 317
e 317 318
e 317 319
e 319 320
e 319 321
e 319 322
e 319 323
e 323 324
e 323 325
e 323 327
e 325 326
e 325 327
e 325 329
e 327 328
e 329 330
e 329 331
e 331 332
e 331 333
e 333 334
e 334 335
e 334 336
e 336 337
e 336 338
e 337 338
e 337 348
e 337 349
e 338 339
e 338 340
e 338 341
e 338 342
e 341 346
e 341 348
e 342 343
e 342 344
e 344 345
e 346 347
e 348 445
e 348 465
e 348 467
e 348 472
e 349 350
e 349 351
e 351 352
e 351 353
e 353 354
e 353 355
e 355 356
e 355 357
e 357 358
e 357 359
e 359 360
e 359 361
e 361 362
e 361 363
e 361 364
e 361 365
e 361 366
e 361 367
e 367 368
e 367 369
e 369 370
e 369 371
e 369 454
e 369 456
e 372 373
e 372 374
e 374 375
e 374 376
e 376 377
e 376 384
e 376 421
e 376 425
e 378 379
e 378 380
e 380 383
e 380 385
e 380 386
e 381 382
e 382 448
e 382 449
e 384 385
e 385 388
e 386 387
e 386 395
e 388 389
e 388 390
e 388 391
e 388 392
e 388 393
e 388 394
e 388 402
e 388 412
e 395 396
e 395 408
e 395 410
e 395 413
e 395 437
e 395 439
e 395 440
e 397 400
e 397 404
e 398 399
e 398 400
e 400 401
e 402 403
e 402 405
e 404 406
e 405 406
e 405 408
e 406 407
e 406 410
e 408 409
e 410 411
e 412 415
e 412 417
e 413 414
e 413 415
e 415 416
e 415 417
e 415 419
e 415 431
e 415 433
e 417 418
e 417 419
e 419 420
e 421 422
e 421 423
e 423 424
e 423 427
e 425 426
e 425 429
e 427 428
e 427 429
e 429 430
e 429 431
e 429 435
e 429 437
e 429 439
e 431 432
e 433 434
e 433 435
e 433 439
e 433 440
e 435 436
e 437 438
e 439 443
e 439 444
e 440 441
e 440 442
e 445 446
e 445 447
e 445 448
e 448 462
e 448 494
e 448 496
e 449 450
e 449 451
e 449 452
e 449 470
e 449 476
e 449 478
e 452 453
e 452 454
e 454 455
e 454 458
e 454 464
e 454 475
e 454 480
e 454 485
e 456 457
e 456 458
e 456 460
e 456 464
e 458 459
e 460 461
e 460 462
e 462 463
e 464 465
e 465 466
e 465 467
e 467 468
e 467 469
e 467 470
e 470 471
e 470 475
e 470 498
e 470 499
e 472 473
e 472 474
e 472 476
e 472 482
e 474 475
e 476 477
e 478 479
e 478 480
e 480 481
e 482 483
e 482 484
e 484 487
e 484 490
e 485 486
e 485 488
e 488 489
e 488 490
e 490 491
e 490 492
e 492 493
e 492 494
e 494 495
e 496 497
e 496 498
e 498 499
e 499 500
l 392
t 38 362
